0	106	147	100	87	93	71	176	163	161	31	
97	0	121	42	28	33	188	102	91	125	120	
178	38	0	184	68	132	147	81	103	64	156	
145	94	68	0	96	172	174	72	40	38	163	
166	193	151	98	0	54	110	126	23	53	154	
72	39	171	137	98	0	194	107	159	113	120	
95	150	179	141	30	199	0	119	141	57	127	
56	132	118	181	126	72	193	0	22	143	21	
86	55	78	58	152	116	178	189	0	128	120	
78	100	29	73	119	164	63	115	30	0	23	
138	36	66	57	70	88	105	197	65	79	0	
